experiments/cvc4_benchmarks/expl/hipspec/rev-equiv-goal7.smt2.log
17:18:21 [WARN] Collecting statistics
17:18:21 [WARN]  ex is: zero
17:18:21 [WARN]  ex is: (succ zero)
17:18:21 [WARN]  ex is: (succ (succ zero))
17:18:21 [WARN]  ex is: nil
17:18:21 [WARN]  ex is: (cons autovar_Nat_0 nil)
17:18:21 [WARN]  ex is: (cons autovar_Nat_1 (cons autovar_Nat_0 nil))
17:18:21 [WARN] Proof mode: false
17:18:21 [WARN]  ex is: zero
17:18:21 [WARN]  ex is: (succ zero)
17:18:21 [WARN]  ex is: (succ (succ zero))
17:18:21 [WARN]  ex is: nil
17:18:21 [WARN]  ex is: (cons autovar_Nat_0 nil)
17:18:21 [WARN]  ex is: (cons autovar_Nat_1 (cons autovar_Nat_0 nil))
17:18:21 [WARN] Proof mode: false
17:18:21 [WARN] proved: (append ?ts_ph_Lst_0 nil) => ?ts_ph_Lst_0
17:18:21 [WARN] proved: (qreva ?ts_ph_Lst_1 ?ts_ph_Lst_0) => (qrev (qreva ?ts_ph_Lst_0 ?ts_ph_Lst_1))
17:18:21 [WARN] proved: (qrev (qreva ?ts_ph_Lst_0 ?ts_ph_Lst_1)) => (qreva ?ts_ph_Lst_1 ?ts_ph_Lst_0)
17:18:21 [WARN] generalized case_split proof as: (append (append ?ts_ph_Lst_0 ?ts_ph_Lst_1) ?ts_ph_Lst_2) -- (append ?ts_ph_Lst_0 (append ?ts_ph_Lst_1 ?ts_ph_Lst_2))
17:18:21 [WARN] proved: (append (append ?ts_ph_Lst_0 ?ts_ph_Lst_1) ?ts_ph_Lst_2) => (append ?ts_ph_Lst_0 (append ?ts_ph_Lst_1 ?ts_ph_Lst_2))
17:18:21 [WARN] proved: (append ?ts_ph_Lst_0 (append ?ts_ph_Lst_1 ?ts_ph_Lst_2)) => (append (append ?ts_ph_Lst_0 ?ts_ph_Lst_1) ?ts_ph_Lst_2)
17:18:22 [WARN] proved: (qreva ?ts_ph_Lst_0 (cons ?ts_ph_Nat_1 ?ts_ph_Lst_1)) => (append (rev ?ts_ph_Lst_0) (cons ?ts_ph_Nat_1 ?ts_ph_Lst_1))
17:18:22 [WARN] proved: (append (rev ?ts_ph_Lst_0) (cons ?ts_ph_Nat_1 ?ts_ph_Lst_1)) => (qreva ?ts_ph_Lst_0 (cons ?ts_ph_Nat_1 ?ts_ph_Lst_1))
17:18:22 [WARN] proved: (qreva ?ts_ph_Lst_0 (cons ?ts_ph_Nat_1 ?ts_ph_Lst_1)) => (append (qrev ?ts_ph_Lst_0) (cons ?ts_ph_Nat_1 ?ts_ph_Lst_1))
17:18:22 [WARN] proved: (append (qrev ?ts_ph_Lst_0) (cons ?ts_ph_Nat_1 ?ts_ph_Lst_1)) => (qreva ?ts_ph_Lst_0 (cons ?ts_ph_Nat_1 ?ts_ph_Lst_1))
17:18:22 [WARN] proved: (qreva (rev ?ts_ph_Lst_0) (cons ?ts_ph_Nat_0 ?ts_ph_Lst_1)) => (append ?ts_ph_Lst_0 (cons ?ts_ph_Nat_0 ?ts_ph_Lst_1))
17:18:22 [WARN] proved: (append ?ts_ph_Lst_0 (cons ?ts_ph_Nat_0 ?ts_ph_Lst_1)) => (qreva (rev ?ts_ph_Lst_0) (cons ?ts_ph_Nat_0 ?ts_ph_Lst_1))
17:18:22 [WARN] generalized case_split proof as: (append (rev ?ts_ph_Lst_0) (qreva ?ts_ph_Lst_1 ?ts_ph_Lst_2)) -- (qreva ?ts_ph_Lst_0 (qreva ?ts_ph_Lst_1 ?ts_ph_Lst_2))
17:18:22 [WARN] proved: (append (rev ?ts_ph_Lst_0) (qreva ?ts_ph_Lst_1 ?ts_ph_Lst_2)) => (qreva ?ts_ph_Lst_0 (qreva ?ts_ph_Lst_1 ?ts_ph_Lst_2))
17:18:22 [WARN] proved: (qreva ?ts_ph_Lst_0 (qreva ?ts_ph_Lst_1 ?ts_ph_Lst_2)) => (append (rev ?ts_ph_Lst_0) (qreva ?ts_ph_Lst_1 ?ts_ph_Lst_2))
17:18:22 [WARN] generalized case_split proof as: (append (qrev ?ts_ph_Lst_0) (qreva ?ts_ph_Lst_1 ?ts_ph_Lst_2)) -- (qreva ?ts_ph_Lst_0 (qreva ?ts_ph_Lst_1 ?ts_ph_Lst_2))
17:18:22 [WARN] proved: (append (qrev ?ts_ph_Lst_0) (qreva ?ts_ph_Lst_1 ?ts_ph_Lst_2)) => (qreva ?ts_ph_Lst_0 (qreva ?ts_ph_Lst_1 ?ts_ph_Lst_2))
17:18:22 [WARN] proved: (qreva ?ts_ph_Lst_0 (qreva ?ts_ph_Lst_1 ?ts_ph_Lst_2)) => (append (qrev ?ts_ph_Lst_0) (qreva ?ts_ph_Lst_1 ?ts_ph_Lst_2))
17:18:22 [WARN] generalized case_split proof as: (append (rev ?ts_ph_Lst_0) (append ?ts_ph_Lst_1 ?ts_ph_Lst_2)) -- (append (qreva ?ts_ph_Lst_0 ?ts_ph_Lst_1) ?ts_ph_Lst_2)
17:18:22 [WARN] proved: (append (rev ?ts_ph_Lst_0) (append ?ts_ph_Lst_1 ?ts_ph_Lst_2)) => (append (qreva ?ts_ph_Lst_0 ?ts_ph_Lst_1) ?ts_ph_Lst_2)
17:18:22 [WARN] proved: (append (qreva ?ts_ph_Lst_0 ?ts_ph_Lst_1) ?ts_ph_Lst_2) => (append (rev ?ts_ph_Lst_0) (append ?ts_ph_Lst_1 ?ts_ph_Lst_2))
17:18:22 [WARN] generalized case_split proof as: (qreva (rev ?ts_ph_Lst_0) (qreva ?ts_ph_Lst_1 ?ts_ph_Lst_2)) -- (append ?ts_ph_Lst_0 (qreva ?ts_ph_Lst_1 ?ts_ph_Lst_2))
17:18:22 [WARN] proved: (qreva (rev ?ts_ph_Lst_0) (qreva ?ts_ph_Lst_1 ?ts_ph_Lst_2)) => (append ?ts_ph_Lst_0 (qreva ?ts_ph_Lst_1 ?ts_ph_Lst_2))
17:18:22 [WARN] proved: (append ?ts_ph_Lst_0 (qreva ?ts_ph_Lst_1 ?ts_ph_Lst_2)) => (qreva (rev ?ts_ph_Lst_0) (qreva ?ts_ph_Lst_1 ?ts_ph_Lst_2))
17:18:22 [WARN] proved: (append (rev ?ts_ph_Lst_0) (append ?ts_ph_Lst_0 ?ts_ph_Lst_1)) => (qreva ?ts_ph_Lst_0 (append ?ts_ph_Lst_0 ?ts_ph_Lst_1))
17:18:22 [WARN] proved: (qreva ?ts_ph_Lst_0 (append ?ts_ph_Lst_0 ?ts_ph_Lst_1)) => (append (rev ?ts_ph_Lst_0) (append ?ts_ph_Lst_0 ?ts_ph_Lst_1))
17:18:22 [WARN] proved: (qreva (rev ?ts_ph_Lst_0) (append ?ts_ph_Lst_0 ?ts_ph_Lst_1)) => (append (append ?ts_ph_Lst_0 ?ts_ph_Lst_0) ?ts_ph_Lst_1)
17:18:22 [WARN] proved: (append (append ?ts_ph_Lst_0 ?ts_ph_Lst_0) ?ts_ph_Lst_1) => (qreva (rev ?ts_ph_Lst_0) (append ?ts_ph_Lst_0 ?ts_ph_Lst_1))
17:18:22 [WARN] proved: (rev (rev ?ts_ph_Lst_0)) => ?ts_ph_Lst_0
